(declare-fun symvar891209342 () Int)
(declare-fun symvar660244321 () Int)
(declare-fun symvar2018126936 () Int)
(assert ( and ( and ( and ( and ( and ( and ( and ( and ( and true ( > symvar2018126936 50)) ( not ( and ( > ( + symvar2018126936 2) 100) ( < ( + symvar2018126936 2) 180)))) ( not ( and ( > ( + symvar2018126936 2) 60) ( < ( + symvar2018126936 2) 70)))) ( > ( + symvar2018126936 2) 65)) ( not ( and ( < ( + symvar2018126936 1) 50) ( > ( + symvar2018126936 1) 44)))) ( not ( > symvar891209342 50))) ( not ( and ( > ( * symvar891209342 2) 100) ( < ( * symvar891209342 2) 180)))) ( and ( > ( * symvar891209342 2) 60) ( < ( * symvar891209342 2) 70))) ( and ( < ( + symvar891209342 15) 50) ( > ( + symvar891209342 15) 44))))
(check-sat)
(get-model)
(exit)
